p cnf 645 2404
1 0
-2 0
-3 0
-4 0
-5 0
-6 0
-7 0
-8 0
-9 0
-10 0
11 12 13 14 0
-11 -12 0
-11 -13 0
-11 -14 0
-12 -13 0
-12 -14 0
-13 -14 0
-1 15 -16 0
1 -15 -16 0
-1 -15 16 0
1 15 16 0
-11 -16 0
1 -15 -17 0
-1 15 -17 0
17 -1 -15 0
17 1 15 0
-12 17 0
-1 18 0
-15 18 0
1 15 -18 0
1 -18 -19 0
-1 18 -19 0
-1 -18 19 0
1 18 19 0
-13 19 0
1 20 0
15 20 0
-1 -15 -20 0
-1 20 -21 0
1 -20 -21 0
21 -20 -1 0
1 20 21 0
-14 -21 0
-2 22 -23 0
2 -22 -23 0
-2 -22 23 0
2 22 23 0
-11 -23 0
2 -24 -25 0
-2 24 -25 0
25 -2 -24 0
25 2 24 0
-12 25 0
-22 26 0
-24 26 0
-27 26 0
-28 26 0
-29 26 0
-30 26 0
-31 26 0
-32 26 0
-33 26 0
34 0
2 -26 -35 0
-2 26 -35 0
-2 -26 35 0
2 26 35 0
-13 35 0
22 36 0
24 36 0
27 36 0
28 36 0
29 36 0
30 36 0
31 36 0
32 36 0
33 36 0
-37 0
-2 36 -38 0
2 -36 -38 0
38 -36 -2 0
2 36 38 0
-14 -38 0
-39 24 -40 0
39 -24 -40 0
-39 -24 40 0
39 24 40 0
-11 -40 0
39 -27 -41 0
-39 27 -41 0
41 -39 -27 0
41 39 27 0
-12 41 0
-24 42 0
-27 42 0
-28 42 0
-29 42 0
-30 42 0
-31 42 0
-32 42 0
-33 42 0
43 0
39 -42 -44 0
-39 42 -44 0
-39 -42 44 0
39 42 44 0
-13 44 0
24 45 0
27 45 0
28 45 0
29 45 0
30 45 0
31 45 0
32 45 0
33 45 0
-46 0
-39 45 -47 0
39 -45 -47 0
47 -45 -39 0
39 45 47 0
-14 -47 0
-48 27 -49 0
48 -27 -49 0
-48 -27 49 0
48 27 49 0
-11 -49 0
48 -28 -50 0
-48 28 -50 0
50 -48 -28 0
50 48 28 0
-12 50 0
-27 51 0
-28 51 0
-29 51 0
-30 51 0
-31 51 0
-32 51 0
-33 51 0
52 0
48 -51 -53 0
-48 51 -53 0
-48 -51 53 0
48 51 53 0
-13 53 0
27 54 0
28 54 0
29 54 0
30 54 0
31 54 0
32 54 0
33 54 0
-55 0
-48 54 -56 0
48 -54 -56 0
56 -54 -48 0
48 54 56 0
-14 -56 0
-57 28 -58 0
57 -28 -58 0
-57 -28 58 0
57 28 58 0
-11 -58 0
57 -29 -59 0
-57 29 -59 0
59 -57 -29 0
59 57 29 0
-12 59 0
-28 60 0
-29 60 0
-30 60 0
-31 60 0
-32 60 0
-33 60 0
28 29 30 31 32 33 -60 0
57 -60 -61 0
-57 60 -61 0
-57 -60 61 0
57 60 61 0
-13 61 0
28 62 0
29 62 0
30 62 0
31 62 0
32 62 0
33 62 0
-63 0
-57 62 -64 0
57 -62 -64 0
64 -62 -57 0
57 62 64 0
-14 -64 0
-65 29 -66 0
65 -29 -66 0
-65 -29 66 0
65 29 66 0
-11 -66 0
65 -30 -67 0
-65 30 -67 0
67 -65 -30 0
67 65 30 0
-12 67 0
-29 68 0
-30 68 0
-31 68 0
-32 68 0
-33 68 0
29 30 31 32 33 -68 0
65 -68 -69 0
-65 68 -69 0
-65 -68 69 0
65 68 69 0
-13 69 0
29 70 0
30 70 0
31 70 0
32 70 0
33 70 0
-71 0
-65 70 -72 0
65 -70 -72 0
72 -70 -65 0
65 70 72 0
-14 -72 0
-73 30 -74 0
73 -30 -74 0
-73 -30 74 0
73 30 74 0
-11 -74 0
73 -31 -75 0
-73 31 -75 0
75 -73 -31 0
75 73 31 0
-12 75 0
73 -68 -76 0
-73 68 -76 0
-73 -68 76 0
73 68 76 0
-13 76 0
-73 70 -77 0
73 -70 -77 0
77 -70 -73 0
73 70 77 0
-14 -77 0
-78 31 -79 0
78 -31 -79 0
-78 -31 79 0
78 31 79 0
-11 -79 0
78 -32 -80 0
-78 32 -80 0
80 -78 -32 0
80 78 32 0
-12 80 0
78 -68 -81 0
-78 68 -81 0
-78 -68 81 0
78 68 81 0
-13 81 0
-78 70 -82 0
78 -70 -82 0
82 -70 -78 0
78 70 82 0
-14 -82 0
-83 32 -84 0
83 -32 -84 0
-83 -32 84 0
83 32 84 0
-11 -84 0
83 -33 -85 0
-83 33 -85 0
85 -83 -33 0
85 83 33 0
-12 85 0
83 -68 -86 0
-83 68 -86 0
-83 -68 86 0
83 68 86 0
-13 86 0
-83 70 -87 0
83 -70 -87 0
87 -70 -83 0
83 70 87 0
-14 -87 0
-88 33 -89 0
88 -33 -89 0
-88 -33 89 0
88 33 89 0
-11 -89 0
88 -29 -90 0
-88 29 -90 0
90 -88 -29 0
90 88 29 0
-12 90 0
-65 91 0
-33 91 0
65 33 -91 0
88 -91 -92 0
-88 91 -92 0
-88 -91 92 0
88 91 92 0
-13 92 0
65 93 0
33 93 0
-65 -33 -93 0
-88 93 -94 0
88 -93 -94 0
94 -93 -88 0
88 93 94 0
-14 -94 0
-3 95 -96 0
3 -95 -96 0
-3 -95 96 0
3 95 96 0
-11 -96 0
3 -97 -98 0
-3 97 -98 0
98 -3 -97 0
98 3 97 0
-12 98 0
-95 99 0
-97 99 0
-100 99 0
-101 99 0
-102 99 0
-103 99 0
-104 99 0
-105 99 0
-106 99 0
-107 99 0
108 0
3 -99 -109 0
-3 99 -109 0
-3 -99 109 0
3 99 109 0
-13 109 0
95 110 0
97 110 0
100 110 0
101 110 0
102 110 0
103 110 0
104 110 0
105 110 0
106 110 0
107 110 0
-111 0
-3 110 -112 0
3 -110 -112 0
112 -110 -3 0
3 110 112 0
-14 -112 0
-113 97 -114 0
113 -97 -114 0
-113 -97 114 0
113 97 114 0
-11 -114 0
113 -100 -115 0
-113 100 -115 0
115 -113 -100 0
115 113 100 0
-12 115 0
-97 116 0
-100 116 0
-101 116 0
-102 116 0
-103 116 0
-104 116 0
-105 116 0
-106 116 0
-107 116 0
117 0
113 -116 -118 0
-113 116 -118 0
-113 -116 118 0
113 116 118 0
-13 118 0
97 119 0
100 119 0
101 119 0
102 119 0
103 119 0
104 119 0
105 119 0
106 119 0
107 119 0
-120 0
-113 119 -121 0
113 -119 -121 0
121 -119 -113 0
113 119 121 0
-14 -121 0
-122 100 -123 0
122 -100 -123 0
-122 -100 123 0
122 100 123 0
-11 -123 0
122 -101 -124 0
-122 101 -124 0
124 -122 -101 0
124 122 101 0
-12 124 0
-100 125 0
-101 125 0
-102 125 0
-103 125 0
-104 125 0
-105 125 0
-106 125 0
-107 125 0
126 0
122 -125 -127 0
-122 125 -127 0
-122 -125 127 0
122 125 127 0
-13 127 0
100 128 0
101 128 0
102 128 0
103 128 0
104 128 0
105 128 0
106 128 0
107 128 0
-129 0
-122 128 -130 0
122 -128 -130 0
130 -128 -122 0
122 128 130 0
-14 -130 0
-131 101 -132 0
131 -101 -132 0
-131 -101 132 0
131 101 132 0
-11 -132 0
131 -102 -133 0
-131 102 -133 0
133 -131 -102 0
133 131 102 0
-12 133 0
-101 134 0
-102 134 0
-103 134 0
-104 134 0
-105 134 0
-106 134 0
-107 134 0
135 0
131 -134 -136 0
-131 134 -136 0
-131 -134 136 0
131 134 136 0
-13 136 0
101 137 0
102 137 0
103 137 0
104 137 0
105 137 0
106 137 0
107 137 0
-138 0
-131 137 -139 0
131 -137 -139 0
139 -137 -131 0
131 137 139 0
-14 -139 0
-140 102 -141 0
140 -102 -141 0
-140 -102 141 0
140 102 141 0
-11 -141 0
140 -103 -142 0
-140 103 -142 0
142 -140 -103 0
142 140 103 0
-12 142 0
-102 143 0
-103 143 0
-104 143 0
-105 143 0
-106 143 0
-107 143 0
144 0
140 -143 -145 0
-140 143 -145 0
-140 -143 145 0
140 143 145 0
-13 145 0
102 146 0
103 146 0
104 146 0
105 146 0
106 146 0
107 146 0
-147 0
-140 146 -148 0
140 -146 -148 0
148 -146 -140 0
140 146 148 0
-14 -148 0
-149 103 -150 0
149 -103 -150 0
-149 -103 150 0
149 103 150 0
-11 -150 0
149 -104 -151 0
-149 104 -151 0
151 -149 -104 0
151 149 104 0
-12 151 0
-103 152 0
-104 152 0
-105 152 0
-106 152 0
-107 152 0
103 104 105 106 107 -152 0
149 -152 -153 0
-149 152 -153 0
-149 -152 153 0
149 152 153 0
-13 153 0
103 154 0
104 154 0
105 154 0
106 154 0
107 154 0
-155 0
-149 154 -156 0
149 -154 -156 0
156 -154 -149 0
149 154 156 0
-14 -156 0
-157 104 -158 0
157 -104 -158 0
-157 -104 158 0
157 104 158 0
-11 -158 0
157 -105 -159 0
-157 105 -159 0
159 -157 -105 0
159 157 105 0
-12 159 0
-104 160 0
-105 160 0
-106 160 0
-107 160 0
104 105 106 107 -160 0
157 -160 -161 0
-157 160 -161 0
-157 -160 161 0
157 160 161 0
-13 161 0
104 162 0
105 162 0
106 162 0
107 162 0
-163 0
-157 162 -164 0
157 -162 -164 0
164 -162 -157 0
157 162 164 0
-14 -164 0
-165 105 -166 0
165 -105 -166 0
-165 -105 166 0
165 105 166 0
-11 -166 0
165 -106 -167 0
-165 106 -167 0
167 -165 -106 0
167 165 106 0
-12 167 0
165 -160 -168 0
-165 160 -168 0
-165 -160 168 0
165 160 168 0
-13 168 0
-165 162 -169 0
165 -162 -169 0
169 -162 -165 0
165 162 169 0
-14 -169 0
-170 106 -171 0
170 -106 -171 0
-170 -106 171 0
170 106 171 0
-11 -171 0
170 -107 -172 0
-170 107 -172 0
172 -170 -107 0
172 170 107 0
-12 172 0
170 -160 -173 0
-170 160 -173 0
-170 -160 173 0
170 160 173 0
-13 173 0
-170 162 -174 0
170 -162 -174 0
174 -162 -170 0
170 162 174 0
-14 -174 0
-175 107 -176 0
175 -107 -176 0
-175 -107 176 0
175 107 176 0
-11 -176 0
175 -104 -177 0
-175 104 -177 0
177 -175 -104 0
177 175 104 0
-12 177 0
-157 178 0
-107 178 0
157 107 -178 0
175 -178 -179 0
-175 178 -179 0
-175 -178 179 0
175 178 179 0
-13 179 0
157 180 0
107 180 0
-157 -107 -180 0
-175 180 -181 0
175 -180 -181 0
181 -180 -175 0
175 180 181 0
-14 -181 0
-4 182 -183 0
4 -182 -183 0
-4 -182 183 0
4 182 183 0
-11 -183 0
4 -184 -185 0
-4 184 -185 0
185 -4 -184 0
185 4 184 0
-12 185 0
-182 186 0
-184 186 0
-187 186 0
-188 186 0
-189 186 0
-190 186 0
-191 186 0
-192 186 0
-193 186 0
-194 186 0
-195 186 0
196 0
4 -186 -197 0
-4 186 -197 0
-4 -186 197 0
4 186 197 0
-13 197 0
182 198 0
184 198 0
187 198 0
188 198 0
189 198 0
190 198 0
191 198 0
192 198 0
193 198 0
194 198 0
195 198 0
-199 0
-4 198 -200 0
4 -198 -200 0
200 -198 -4 0
4 198 200 0
-14 -200 0
-201 184 -202 0
201 -184 -202 0
-201 -184 202 0
201 184 202 0
-11 -202 0
201 -187 -203 0
-201 187 -203 0
203 -201 -187 0
203 201 187 0
-12 203 0
-184 204 0
-187 204 0
-188 204 0
-189 204 0
-190 204 0
-191 204 0
-192 204 0
-193 204 0
-194 204 0
-195 204 0
205 0
201 -204 -206 0
-201 204 -206 0
-201 -204 206 0
201 204 206 0
-13 206 0
184 207 0
187 207 0
188 207 0
189 207 0
190 207 0
191 207 0
192 207 0
193 207 0
194 207 0
195 207 0
-208 0
-201 207 -209 0
201 -207 -209 0
209 -207 -201 0
201 207 209 0
-14 -209 0
-210 187 -211 0
210 -187 -211 0
-210 -187 211 0
210 187 211 0
-11 -211 0
210 -188 -212 0
-210 188 -212 0
212 -210 -188 0
212 210 188 0
-12 212 0
-187 213 0
-188 213 0
-189 213 0
-190 213 0
-191 213 0
-192 213 0
-193 213 0
-194 213 0
-195 213 0
214 0
210 -213 -215 0
-210 213 -215 0
-210 -213 215 0
210 213 215 0
-13 215 0
187 216 0
188 216 0
189 216 0
190 216 0
191 216 0
192 216 0
193 216 0
194 216 0
195 216 0
-217 0
-210 216 -218 0
210 -216 -218 0
218 -216 -210 0
210 216 218 0
-14 -218 0
-219 188 -220 0
219 -188 -220 0
-219 -188 220 0
219 188 220 0
-11 -220 0
219 -189 -221 0
-219 189 -221 0
221 -219 -189 0
221 219 189 0
-12 221 0
-188 222 0
-189 222 0
-190 222 0
-191 222 0
-192 222 0
-193 222 0
-194 222 0
-195 222 0
223 0
219 -222 -224 0
-219 222 -224 0
-219 -222 224 0
219 222 224 0
-13 224 0
188 225 0
189 225 0
190 225 0
191 225 0
192 225 0
193 225 0
194 225 0
195 225 0
-226 0
-219 225 -227 0
219 -225 -227 0
227 -225 -219 0
219 225 227 0
-14 -227 0
-228 189 -229 0
228 -189 -229 0
-228 -189 229 0
228 189 229 0
-11 -229 0
228 -190 -230 0
-228 190 -230 0
230 -228 -190 0
230 228 190 0
-12 230 0
-189 231 0
-190 231 0
-191 231 0
-192 231 0
-193 231 0
-194 231 0
-195 231 0
232 0
228 -231 -233 0
-228 231 -233 0
-228 -231 233 0
228 231 233 0
-13 233 0
189 234 0
190 234 0
191 234 0
192 234 0
193 234 0
194 234 0
195 234 0
-235 0
-228 234 -236 0
228 -234 -236 0
236 -234 -228 0
228 234 236 0
-14 -236 0
-237 190 -238 0
237 -190 -238 0
-237 -190 238 0
237 190 238 0
-11 -238 0
237 -191 -239 0
-237 191 -239 0
239 -237 -191 0
239 237 191 0
-12 239 0
-190 240 0
-191 240 0
-192 240 0
-193 240 0
-194 240 0
-195 240 0
241 0
237 -240 -242 0
-237 240 -242 0
-237 -240 242 0
237 240 242 0
-13 242 0
190 243 0
191 243 0
192 243 0
193 243 0
194 243 0
195 243 0
-244 0
-237 243 -245 0
237 -243 -245 0
245 -243 -237 0
237 243 245 0
-14 -245 0
-246 191 -247 0
246 -191 -247 0
-246 -191 247 0
246 191 247 0
-11 -247 0
246 -192 -248 0
-246 192 -248 0
248 -246 -192 0
248 246 192 0
-12 248 0
246 -240 -249 0
-246 240 -249 0
-246 -240 249 0
246 240 249 0
-13 249 0
-246 243 -250 0
246 -243 -250 0
250 -243 -246 0
246 243 250 0
-14 -250 0
-251 192 -252 0
251 -192 -252 0
-251 -192 252 0
251 192 252 0
-11 -252 0
251 -193 -253 0
-251 193 -253 0
253 -251 -193 0
253 251 193 0
-12 253 0
251 -240 -254 0
-251 240 -254 0
-251 -240 254 0
251 240 254 0
-13 254 0
-251 243 -255 0
251 -243 -255 0
255 -243 -251 0
251 243 255 0
-14 -255 0
-256 193 -257 0
256 -193 -257 0
-256 -193 257 0
256 193 257 0
-11 -257 0
256 -194 -258 0
-256 194 -258 0
258 -256 -194 0
258 256 194 0
-12 258 0
256 -240 -259 0
-256 240 -259 0
-256 -240 259 0
256 240 259 0
-13 259 0
-256 243 -260 0
256 -243 -260 0
260 -243 -256 0
256 243 260 0
-14 -260 0
-261 194 -262 0
261 -194 -262 0
-261 -194 262 0
261 194 262 0
-11 -262 0
261 -195 -263 0
-261 195 -263 0
263 -261 -195 0
263 261 195 0
-12 263 0
261 -240 -264 0
-261 240 -264 0
-261 -240 264 0
261 240 264 0
-13 264 0
-261 243 -265 0
261 -243 -265 0
265 -243 -261 0
261 243 265 0
-14 -265 0
-266 195 -267 0
266 -195 -267 0
-266 -195 267 0
266 195 267 0
-11 -267 0
266 -190 -268 0
-266 190 -268 0
268 -266 -190 0
268 266 190 0
-12 268 0
-237 269 0
-195 269 0
237 195 -269 0
266 -269 -270 0
-266 269 -270 0
-266 -269 270 0
266 269 270 0
-13 270 0
237 271 0
195 271 0
-237 -195 -271 0
-266 271 -272 0
266 -271 -272 0
272 -271 -266 0
266 271 272 0
-14 -272 0
-5 273 -274 0
5 -273 -274 0
-5 -273 274 0
5 273 274 0
-11 -274 0
5 -275 -276 0
-5 275 -276 0
276 -5 -275 0
276 5 275 0
-12 276 0
-27 277 0
-28 277 0
-29 277 0
-30 277 0
-31 277 0
-32 277 0
-33 277 0
-273 277 0
-275 277 0
278 0
5 -277 -279 0
-5 277 -279 0
-5 -277 279 0
5 277 279 0
-13 279 0
27 280 0
28 280 0
29 280 0
30 280 0
31 280 0
32 280 0
33 280 0
273 280 0
275 280 0
-281 0
-5 280 -282 0
5 -280 -282 0
282 -280 -5 0
5 280 282 0
-14 -282 0
-283 275 -284 0
283 -275 -284 0
-283 -275 284 0
283 275 284 0
-11 -284 0
283 -27 -285 0
-283 27 -285 0
285 -283 -27 0
285 283 27 0
-12 285 0
-27 286 0
-28 286 0
-29 286 0
-30 286 0
-31 286 0
-32 286 0
-33 286 0
-275 286 0
287 0
283 -286 -288 0
-283 286 -288 0
-283 -286 288 0
283 286 288 0
-13 288 0
27 289 0
28 289 0
29 289 0
30 289 0
31 289 0
32 289 0
33 289 0
275 289 0
-290 0
-283 289 -291 0
283 -289 -291 0
291 -289 -283 0
283 289 291 0
-14 -291 0
-6 292 -293 0
6 -292 -293 0
-6 -292 293 0
6 292 293 0
-11 -293 0
6 -294 -295 0
-6 294 -295 0
295 -6 -294 0
295 6 294 0
-12 295 0
-292 296 0
-294 296 0
-297 296 0
-298 296 0
-299 296 0
-300 296 0
301 0
6 -296 -302 0
-6 296 -302 0
-6 -296 302 0
6 296 302 0
-13 302 0
292 303 0
294 303 0
297 303 0
298 303 0
299 303 0
300 303 0
-304 0
-6 303 -305 0
6 -303 -305 0
305 -303 -6 0
6 303 305 0
-14 -305 0
-306 294 -307 0
306 -294 -307 0
-306 -294 307 0
306 294 307 0
-11 -307 0
306 -297 -308 0
-306 297 -308 0
308 -306 -297 0
308 306 297 0
-12 308 0
-294 309 0
-297 309 0
-298 309 0
-299 309 0
-300 309 0
294 297 298 299 300 -309 0
306 -309 -310 0
-306 309 -310 0
-306 -309 310 0
306 309 310 0
-13 310 0
294 311 0
297 311 0
298 311 0
299 311 0
300 311 0
-312 0
-306 311 -313 0
306 -311 -313 0
313 -311 -306 0
306 311 313 0
-14 -313 0
-314 297 -315 0
314 -297 -315 0
-314 -297 315 0
314 297 315 0
-11 -315 0
314 -298 -316 0
-314 298 -316 0
316 -314 -298 0
316 314 298 0
-12 316 0
314 -309 -317 0
-314 309 -317 0
-314 -309 317 0
314 309 317 0
-13 317 0
-314 311 -318 0
314 -311 -318 0
318 -311 -314 0
314 311 318 0
-14 -318 0
-319 298 -320 0
319 -298 -320 0
-319 -298 320 0
319 298 320 0
-11 -320 0
319 -299 -321 0
-319 299 -321 0
321 -319 -299 0
321 319 299 0
-12 321 0
319 -309 -322 0
-319 309 -322 0
-319 -309 322 0
319 309 322 0
-13 322 0
-319 311 -323 0
319 -311 -323 0
323 -311 -319 0
319 311 323 0
-14 -323 0
-324 299 -325 0
324 -299 -325 0
-324 -299 325 0
324 299 325 0
-11 -325 0
324 -300 -326 0
-324 300 -326 0
326 -324 -300 0
326 324 300 0
-12 326 0
324 -309 -327 0
-324 309 -327 0
-324 -309 327 0
324 309 327 0
-13 327 0
-324 311 -328 0
324 -311 -328 0
328 -311 -324 0
324 311 328 0
-14 -328 0
-329 300 -330 0
329 -300 -330 0
-329 -300 330 0
329 300 330 0
-11 -330 0
329 -294 -331 0
-329 294 -331 0
331 -329 -294 0
331 329 294 0
-12 331 0
-306 332 0
-300 332 0
306 300 -332 0
329 -332 -333 0
-329 332 -333 0
-329 -332 333 0
329 332 333 0
-13 333 0
306 334 0
300 334 0
-306 -300 -334 0
-329 334 -335 0
329 -334 -335 0
335 -334 -329 0
329 334 335 0
-14 -335 0
-7 336 -337 0
7 -336 -337 0
-7 -336 337 0
7 336 337 0
-11 -337 0
7 -338 -339 0
-7 338 -339 0
339 -7 -338 0
339 7 338 0
-12 339 0
-336 340 0
-338 340 0
-341 340 0
-342 340 0
-343 340 0
-344 340 0
-345 340 0
-346 340 0
-347 340 0
-348 340 0
-349 340 0
-350 340 0
351 0
7 -340 -352 0
-7 340 -352 0
-7 -340 352 0
7 340 352 0
-13 352 0
336 353 0
338 353 0
341 353 0
342 353 0
343 353 0
344 353 0
345 353 0
346 353 0
347 353 0
348 353 0
349 353 0
350 353 0
-354 0
-7 353 -355 0
7 -353 -355 0
355 -353 -7 0
7 353 355 0
-14 -355 0
-356 338 -357 0
356 -338 -357 0
-356 -338 357 0
356 338 357 0
-11 -357 0
356 -341 -358 0
-356 341 -358 0
358 -356 -341 0
358 356 341 0
-12 358 0
-338 359 0
-341 359 0
-342 359 0
-343 359 0
-344 359 0
-345 359 0
-346 359 0
-347 359 0
-348 359 0
-349 359 0
-350 359 0
360 0
356 -359 -361 0
-356 359 -361 0
-356 -359 361 0
356 359 361 0
-13 361 0
338 362 0
341 362 0
342 362 0
343 362 0
344 362 0
345 362 0
346 362 0
347 362 0
348 362 0
349 362 0
350 362 0
-363 0
-356 362 -364 0
356 -362 -364 0
364 -362 -356 0
356 362 364 0
-14 -364 0
-365 341 -366 0
365 -341 -366 0
-365 -341 366 0
365 341 366 0
-11 -366 0
365 -342 -367 0
-365 342 -367 0
367 -365 -342 0
367 365 342 0
-12 367 0
-341 368 0
-342 368 0
-343 368 0
-344 368 0
-345 368 0
-346 368 0
-347 368 0
-348 368 0
-349 368 0
-350 368 0
369 0
365 -368 -370 0
-365 368 -370 0
-365 -368 370 0
365 368 370 0
-13 370 0
341 371 0
342 371 0
343 371 0
344 371 0
345 371 0
346 371 0
347 371 0
348 371 0
349 371 0
350 371 0
-372 0
-365 371 -373 0
365 -371 -373 0
373 -371 -365 0
365 371 373 0
-14 -373 0
-374 342 -375 0
374 -342 -375 0
-374 -342 375 0
374 342 375 0
-11 -375 0
374 -343 -376 0
-374 343 -376 0
376 -374 -343 0
376 374 343 0
-12 376 0
-342 377 0
-343 377 0
-344 377 0
-345 377 0
-346 377 0
-347 377 0
-348 377 0
-349 377 0
-350 377 0
378 0
374 -377 -379 0
-374 377 -379 0
-374 -377 379 0
374 377 379 0
-13 379 0
342 380 0
343 380 0
344 380 0
345 380 0
346 380 0
347 380 0
348 380 0
349 380 0
350 380 0
-381 0
-374 380 -382 0
374 -380 -382 0
382 -380 -374 0
374 380 382 0
-14 -382 0
-383 343 -384 0
383 -343 -384 0
-383 -343 384 0
383 343 384 0
-11 -384 0
383 -344 -385 0
-383 344 -385 0
385 -383 -344 0
385 383 344 0
-12 385 0
-343 386 0
-344 386 0
-345 386 0
-346 386 0
-347 386 0
-348 386 0
-349 386 0
-350 386 0
387 0
383 -386 -388 0
-383 386 -388 0
-383 -386 388 0
383 386 388 0
-13 388 0
343 389 0
344 389 0
345 389 0
346 389 0
347 389 0
348 389 0
349 389 0
350 389 0
-390 0
-383 389 -391 0
383 -389 -391 0
391 -389 -383 0
383 389 391 0
-14 -391 0
-392 344 -393 0
392 -344 -393 0
-392 -344 393 0
392 344 393 0
-11 -393 0
392 -345 -394 0
-392 345 -394 0
394 -392 -345 0
394 392 345 0
-12 394 0
-344 395 0
-345 395 0
-346 395 0
-347 395 0
-348 395 0
-349 395 0
-350 395 0
396 0
392 -395 -397 0
-392 395 -397 0
-392 -395 397 0
392 395 397 0
-13 397 0
344 398 0
345 398 0
346 398 0
347 398 0
348 398 0
349 398 0
350 398 0
-399 0
-392 398 -400 0
392 -398 -400 0
400 -398 -392 0
392 398 400 0
-14 -400 0
-401 345 -402 0
401 -345 -402 0
-401 -345 402 0
401 345 402 0
-11 -402 0
401 -346 -403 0
-401 346 -403 0
403 -401 -346 0
403 401 346 0
-12 403 0
-345 404 0
-346 404 0
-347 404 0
-348 404 0
-349 404 0
-350 404 0
405 0
401 -404 -406 0
-401 404 -406 0
-401 -404 406 0
401 404 406 0
-13 406 0
345 407 0
346 407 0
347 407 0
348 407 0
349 407 0
350 407 0
-408 0
-401 407 -409 0
401 -407 -409 0
409 -407 -401 0
401 407 409 0
-14 -409 0
-410 346 -411 0
410 -346 -411 0
-410 -346 411 0
410 346 411 0
-11 -411 0
410 -347 -412 0
-410 347 -412 0
412 -410 -347 0
412 410 347 0
-12 412 0
410 -404 -413 0
-410 404 -413 0
-410 -404 413 0
410 404 413 0
-13 413 0
-410 407 -414 0
410 -407 -414 0
414 -407 -410 0
410 407 414 0
-14 -414 0
-415 347 -416 0
415 -347 -416 0
-415 -347 416 0
415 347 416 0
-11 -416 0
415 -348 -417 0
-415 348 -417 0
417 -415 -348 0
417 415 348 0
-12 417 0
415 -404 -418 0
-415 404 -418 0
-415 -404 418 0
415 404 418 0
-13 418 0
-415 407 -419 0
415 -407 -419 0
419 -407 -415 0
415 407 419 0
-14 -419 0
-420 348 -421 0
420 -348 -421 0
-420 -348 421 0
420 348 421 0
-11 -421 0
420 -349 -422 0
-420 349 -422 0
422 -420 -349 0
422 420 349 0
-12 422 0
420 -404 -423 0
-420 404 -423 0
-420 -404 423 0
420 404 423 0
-13 423 0
-420 407 -424 0
420 -407 -424 0
424 -407 -420 0
420 407 424 0
-14 -424 0
-425 349 -426 0
425 -349 -426 0
-425 -349 426 0
425 349 426 0
-11 -426 0
425 -350 -427 0
-425 350 -427 0
427 -425 -350 0
427 425 350 0
-12 427 0
425 -404 -428 0
-425 404 -428 0
-425 -404 428 0
425 404 428 0
-13 428 0
-425 407 -429 0
425 -407 -429 0
429 -407 -425 0
425 407 429 0
-14 -429 0
-430 350 -431 0
430 -350 -431 0
-430 -350 431 0
430 350 431 0
-11 -431 0
430 -345 -432 0
-430 345 -432 0
432 -430 -345 0
432 430 345 0
-12 432 0
-401 433 0
-350 433 0
401 350 -433 0
430 -433 -434 0
-430 433 -434 0
-430 -433 434 0
430 433 434 0
-13 434 0
401 435 0
350 435 0
-401 -350 -435 0
-430 435 -436 0
430 -435 -436 0
436 -435 -430 0
430 435 436 0
-14 -436 0
-8 437 -438 0
8 -437 -438 0
-8 -437 438 0
8 437 438 0
-11 -438 0
8 -439 -440 0
-8 439 -440 0
440 -8 -439 0
440 8 439 0
-12 440 0
-437 441 0
-439 441 0
-442 441 0
-443 441 0
-444 441 0
-445 441 0
-446 441 0
447 0
8 -441 -448 0
-8 441 -448 0
-8 -441 448 0
8 441 448 0
-13 448 0
437 449 0
439 449 0
442 449 0
443 449 0
444 449 0
445 449 0
446 449 0
-450 0
-8 449 -451 0
8 -449 -451 0
451 -449 -8 0
8 449 451 0
-14 -451 0
-452 439 -453 0
452 -439 -453 0
-452 -439 453 0
452 439 453 0
-11 -453 0
452 -442 -454 0
-452 442 -454 0
454 -452 -442 0
454 452 442 0
-12 454 0
-439 455 0
-442 455 0
-443 455 0
-444 455 0
-445 455 0
-446 455 0
456 0
452 -455 -457 0
-452 455 -457 0
-452 -455 457 0
452 455 457 0
-13 457 0
439 458 0
442 458 0
443 458 0
444 458 0
445 458 0
446 458 0
-459 0
-452 458 -460 0
452 -458 -460 0
460 -458 -452 0
452 458 460 0
-14 -460 0
-461 442 -462 0
461 -442 -462 0
-461 -442 462 0
461 442 462 0
-11 -462 0
461 -443 -463 0
-461 443 -463 0
463 -461 -443 0
463 461 443 0
-12 463 0
-442 464 0
-443 464 0
-444 464 0
-445 464 0
-446 464 0
442 443 444 445 446 -464 0
461 -464 -465 0
-461 464 -465 0
-461 -464 465 0
461 464 465 0
-13 465 0
442 466 0
443 466 0
444 466 0
445 466 0
446 466 0
-467 0
-461 466 -468 0
461 -466 -468 0
468 -466 -461 0
461 466 468 0
-14 -468 0
-469 443 -470 0
469 -443 -470 0
-469 -443 470 0
469 443 470 0
-11 -470 0
469 -444 -471 0
-469 444 -471 0
471 -469 -444 0
471 469 444 0
-12 471 0
-443 472 0
-444 472 0
-445 472 0
-446 472 0
443 444 445 446 -472 0
469 -472 -473 0
-469 472 -473 0
-469 -472 473 0
469 472 473 0
-13 473 0
443 474 0
444 474 0
445 474 0
446 474 0
-475 0
-469 474 -476 0
469 -474 -476 0
476 -474 -469 0
469 474 476 0
-14 -476 0
-477 444 -478 0
477 -444 -478 0
-477 -444 478 0
477 444 478 0
-11 -478 0
477 -445 -479 0
-477 445 -479 0
479 -477 -445 0
479 477 445 0
-12 479 0
-444 480 0
-445 480 0
-446 480 0
444 445 446 -480 0
477 -480 -481 0
-477 480 -481 0
-477 -480 481 0
477 480 481 0
-13 481 0
444 482 0
445 482 0
446 482 0
-444 -445 -446 -482 0
-477 482 -483 0
477 -482 -483 0
483 -482 -477 0
477 482 483 0
-14 -483 0
-484 445 -485 0
484 -445 -485 0
-484 -445 485 0
484 445 485 0
-11 -485 0
484 -446 -486 0
-484 446 -486 0
486 -484 -446 0
486 484 446 0
-12 486 0
-445 487 0
-446 487 0
445 446 -487 0
484 -487 -488 0
-484 487 -488 0
-484 -487 488 0
484 487 488 0
-13 488 0
445 489 0
446 489 0
-445 -446 -489 0
-484 489 -490 0
484 -489 -490 0
490 -489 -484 0
484 489 490 0
-14 -490 0
-491 446 -492 0
491 -446 -492 0
-491 -446 492 0
491 446 492 0
-11 -492 0
491 -445 -493 0
-491 445 -493 0
493 -491 -445 0
493 491 445 0
-12 493 0
-484 494 0
-446 494 0
484 446 -494 0
491 -494 -495 0
-491 494 -495 0
-491 -494 495 0
491 494 495 0
-13 495 0
484 496 0
446 496 0
-484 -446 -496 0
-491 496 -497 0
491 -496 -497 0
497 -496 -491 0
491 496 497 0
-14 -497 0
-9 498 -499 0
9 -498 -499 0
-9 -498 499 0
9 498 499 0
-11 -499 0
9 -500 -501 0
-9 500 -501 0
501 -9 -500 0
501 9 500 0
-12 501 0
-498 502 0
-500 502 0
-503 502 0
-504 502 0
-505 502 0
-506 502 0
-507 502 0
-508 502 0
-509 502 0
-510 502 0
-511 502 0
-512 502 0
513 0
9 -502 -514 0
-9 502 -514 0
-9 -502 514 0
9 502 514 0
-13 514 0
498 515 0
500 515 0
503 515 0
504 515 0
505 515 0
506 515 0
507 515 0
508 515 0
509 515 0
510 515 0
511 515 0
512 515 0
-516 0
-9 515 -517 0
9 -515 -517 0
517 -515 -9 0
9 515 517 0
-14 -517 0
-518 500 -519 0
518 -500 -519 0
-518 -500 519 0
518 500 519 0
-11 -519 0
518 -503 -520 0
-518 503 -520 0
520 -518 -503 0
520 518 503 0
-12 520 0
-500 521 0
-503 521 0
-504 521 0
-505 521 0
-506 521 0
-507 521 0
-508 521 0
-509 521 0
-510 521 0
-511 521 0
-512 521 0
522 0
518 -521 -523 0
-518 521 -523 0
-518 -521 523 0
518 521 523 0
-13 523 0
500 524 0
503 524 0
504 524 0
505 524 0
506 524 0
507 524 0
508 524 0
509 524 0
510 524 0
511 524 0
512 524 0
-525 0
-518 524 -526 0
518 -524 -526 0
526 -524 -518 0
518 524 526 0
-14 -526 0
-527 503 -528 0
527 -503 -528 0
-527 -503 528 0
527 503 528 0
-11 -528 0
527 -504 -529 0
-527 504 -529 0
529 -527 -504 0
529 527 504 0
-12 529 0
-503 530 0
-504 530 0
-505 530 0
-506 530 0
-507 530 0
-508 530 0
-509 530 0
-510 530 0
-511 530 0
-512 530 0
531 0
527 -530 -532 0
-527 530 -532 0
-527 -530 532 0
527 530 532 0
-13 532 0
503 533 0
504 533 0
505 533 0
506 533 0
507 533 0
508 533 0
509 533 0
510 533 0
511 533 0
512 533 0
-534 0
-527 533 -535 0
527 -533 -535 0
535 -533 -527 0
527 533 535 0
-14 -535 0
-536 504 -537 0
536 -504 -537 0
-536 -504 537 0
536 504 537 0
-11 -537 0
536 -505 -538 0
-536 505 -538 0
538 -536 -505 0
538 536 505 0
-12 538 0
-504 539 0
-505 539 0
-506 539 0
-507 539 0
-508 539 0
-509 539 0
-510 539 0
-511 539 0
-512 539 0
540 0
536 -539 -541 0
-536 539 -541 0
-536 -539 541 0
536 539 541 0
-13 541 0
504 542 0
505 542 0
506 542 0
507 542 0
508 542 0
509 542 0
510 542 0
511 542 0
512 542 0
-543 0
-536 542 -544 0
536 -542 -544 0
544 -542 -536 0
536 542 544 0
-14 -544 0
-545 505 -546 0
545 -505 -546 0
-545 -505 546 0
545 505 546 0
-11 -546 0
545 -506 -547 0
-545 506 -547 0
547 -545 -506 0
547 545 506 0
-12 547 0
-505 548 0
-506 548 0
-507 548 0
-508 548 0
-509 548 0
-510 548 0
-511 548 0
-512 548 0
549 0
545 -548 -550 0
-545 548 -550 0
-545 -548 550 0
545 548 550 0
-13 550 0
505 551 0
506 551 0
507 551 0
508 551 0
509 551 0
510 551 0
511 551 0
512 551 0
-552 0
-545 551 -553 0
545 -551 -553 0
553 -551 -545 0
545 551 553 0
-14 -553 0
-554 506 -555 0
554 -506 -555 0
-554 -506 555 0
554 506 555 0
-11 -555 0
554 -507 -556 0
-554 507 -556 0
556 -554 -507 0
556 554 507 0
-12 556 0
-506 557 0
-507 557 0
-508 557 0
-509 557 0
-510 557 0
-511 557 0
-512 557 0
558 0
554 -557 -559 0
-554 557 -559 0
-554 -557 559 0
554 557 559 0
-13 559 0
506 560 0
507 560 0
508 560 0
509 560 0
510 560 0
511 560 0
512 560 0
-561 0
-554 560 -562 0
554 -560 -562 0
562 -560 -554 0
554 560 562 0
-14 -562 0
-563 507 -564 0
563 -507 -564 0
-563 -507 564 0
563 507 564 0
-11 -564 0
563 -508 -565 0
-563 508 -565 0
565 -563 -508 0
565 563 508 0
-12 565 0
-507 566 0
-508 566 0
-509 566 0
-510 566 0
-511 566 0
-512 566 0
567 0
563 -566 -568 0
-563 566 -568 0
-563 -566 568 0
563 566 568 0
-13 568 0
507 569 0
508 569 0
509 569 0
510 569 0
511 569 0
512 569 0
-570 0
-563 569 -571 0
563 -569 -571 0
571 -569 -563 0
563 569 571 0
-14 -571 0
-572 508 -573 0
572 -508 -573 0
-572 -508 573 0
572 508 573 0
-11 -573 0
572 -509 -574 0
-572 509 -574 0
574 -572 -509 0
574 572 509 0
-12 574 0
572 -566 -575 0
-572 566 -575 0
-572 -566 575 0
572 566 575 0
-13 575 0
-572 569 -576 0
572 -569 -576 0
576 -569 -572 0
572 569 576 0
-14 -576 0
-577 509 -578 0
577 -509 -578 0
-577 -509 578 0
577 509 578 0
-11 -578 0
577 -510 -579 0
-577 510 -579 0
579 -577 -510 0
579 577 510 0
-12 579 0
577 -566 -580 0
-577 566 -580 0
-577 -566 580 0
577 566 580 0
-13 580 0
-577 569 -581 0
577 -569 -581 0
581 -569 -577 0
577 569 581 0
-14 -581 0
-582 510 -583 0
582 -510 -583 0
-582 -510 583 0
582 510 583 0
-11 -583 0
582 -511 -584 0
-582 511 -584 0
584 -582 -511 0
584 582 511 0
-12 584 0
582 -566 -585 0
-582 566 -585 0
-582 -566 585 0
582 566 585 0
-13 585 0
-582 569 -586 0
582 -569 -586 0
586 -569 -582 0
582 569 586 0
-14 -586 0
-587 511 -588 0
587 -511 -588 0
-587 -511 588 0
587 511 588 0
-11 -588 0
587 -512 -589 0
-587 512 -589 0
589 -587 -512 0
589 587 512 0
-12 589 0
587 -566 -590 0
-587 566 -590 0
-587 -566 590 0
587 566 590 0
-13 590 0
-587 569 -591 0
587 -569 -591 0
591 -569 -587 0
587 569 591 0
-14 -591 0
-592 512 -593 0
592 -512 -593 0
-592 -512 593 0
592 512 593 0
-11 -593 0
592 -507 -594 0
-592 507 -594 0
594 -592 -507 0
594 592 507 0
-12 594 0
-563 595 0
-512 595 0
563 512 -595 0
592 -595 -596 0
-592 595 -596 0
-592 -595 596 0
592 595 596 0
-13 596 0
563 597 0
512 597 0
-563 -512 -597 0
-592 597 -598 0
592 -597 -598 0
598 -597 -592 0
592 597 598 0
-14 -598 0
-10 599 -600 0
10 -599 -600 0
-10 -599 600 0
10 599 600 0
-11 -600 0
10 -601 -602 0
-10 601 -602 0
602 -10 -601 0
602 10 601 0
-12 602 0
-104 603 0
-105 603 0
-106 603 0
-107 603 0
-599 603 0
-601 603 0
-604 603 0
-605 603 0
606 0
10 -603 -607 0
-10 603 -607 0
-10 -603 607 0
10 603 607 0
-13 607 0
104 608 0
105 608 0
106 608 0
107 608 0
599 608 0
601 608 0
604 608 0
605 608 0
-609 0
-10 608 -610 0
10 -608 -610 0
610 -608 -10 0
10 608 610 0
-14 -610 0
-611 601 -612 0
611 -601 -612 0
-611 -601 612 0
611 601 612 0
-11 -612 0
611 -604 -613 0
-611 604 -613 0
613 -611 -604 0
613 611 604 0
-12 613 0
-104 614 0
-105 614 0
-106 614 0
-107 614 0
-601 614 0
-604 614 0
-605 614 0
615 0
611 -614 -616 0
-611 614 -616 0
-611 -614 616 0
611 614 616 0
-13 616 0
104 617 0
105 617 0
106 617 0
107 617 0
601 617 0
604 617 0
605 617 0
-618 0
-611 617 -619 0
611 -617 -619 0
619 -617 -611 0
611 617 619 0
-14 -619 0
-620 604 -621 0
620 -604 -621 0
-620 -604 621 0
620 604 621 0
-11 -621 0
620 -605 -622 0
-620 605 -622 0
622 -620 -605 0
622 620 605 0
-12 622 0
-104 623 0
-105 623 0
-106 623 0
-107 623 0
-604 623 0
-605 623 0
624 0
620 -623 -625 0
-620 623 -625 0
-620 -623 625 0
620 623 625 0
-13 625 0
104 626 0
105 626 0
106 626 0
107 626 0
604 626 0
605 626 0
-627 0
-620 626 -628 0
620 -626 -628 0
628 -626 -620 0
620 626 628 0
-14 -628 0
-629 605 -630 0
629 -605 -630 0
-629 -605 630 0
629 605 630 0
-11 -630 0
629 -105 -631 0
-629 105 -631 0
631 -629 -105 0
631 629 105 0
-12 631 0
-104 632 0
-105 632 0
-106 632 0
-107 632 0
-605 632 0
104 105 106 107 605 -632 0
629 -632 -633 0
-629 632 -633 0
-629 -632 633 0
629 632 633 0
-13 633 0
104 634 0
105 634 0
106 634 0
107 634 0
605 634 0
-635 0
-629 634 -636 0
629 -634 -636 0
636 -634 -629 0
629 634 636 0
-14 -636 0
15 -637 0
-637 -22 0
24 -637 0
27 -637 0
28 -637 0
29 -637 0
-637 -30 0
31 -637 0
32 -637 0
-637 -33 0
95 -637 0
97 -637 0
-637 -100 0
-637 -101 0
-637 -102 0
-637 -103 0
104 -637 0
-637 -105 0
-637 -106 0
107 -637 0
182 -637 0
184 -637 0
-637 -187 0
188 -637 0
189 -637 0
190 -637 0
191 -637 0
192 -637 0
193 -637 0
-637 -194 0
-637 -195 0
-637 -273 0
-637 -275 0
-637 -292 0
-637 -294 0
-637 -297 0
298 -637 0
299 -637 0
300 -637 0
336 -637 0
-637 -338 0
341 -637 0
-637 -342 0
343 -637 0
-637 -344 0
345 -637 0
-637 -346 0
-637 -347 0
-637 -348 0
-637 -349 0
350 -637 0
-637 -437 0
-637 -439 0
-637 -442 0
443 -637 0
444 -637 0
445 -637 0
-637 -446 0
-637 -498 0
-637 -500 0
503 -637 0
-637 -504 0
-637 -505 0
-637 -506 0
-637 -507 0
-637 -508 0
509 -637 0
-637 -510 0
511 -637 0
512 -637 0
599 -637 0
601 -637 0
604 -637 0
-637 -605 0
637 0
-638 0
-639 0
-640 0
-641 0
-642 0
-643 0
-644 0
-645 0
